33D32945 STP File, STP Format Version 1.0

SECTION Comments
Name "shell_n13_d2_s22"
Problem "Euclidean Steiner Tree Problem"
Remark "Generated with STPGenerator. 2 dimensions."
END

SECTION Graph
Nodes 13
END

SECTION Coordinates
DD 0 0.9838578427 0.1789517960
DD 1 0.2681727587 -0.9633708380
DD 2 0.0711526480 0.9974654383
DD 3 -0.9087659160 -0.4173062544
DD 4 -0.8783395310 -0.4780373085
DD 5 0.9929313811 0.1186898161
DD 6 -0.4649705306 -0.8853261578
DD 7 -0.9647748611 0.2630769231
DD 8 -0.2057887705 0.9785964347
DD 9 -0.9999696904 0.0077857749
DD 10 0.9969433995 -0.0781271919
DD 11 0.0907636800 0.9958724589
DD 12 -0.9010264881 0.4337640691
END
